
Gurobi 13.0.1 (linux64) logging started Sun Mar 22 01:59:24 2026

Set parameter LogFile to value "logs/100B_3F_robust_gamma_0d25_theta_0d05199999999999999_2026-03-22_01h58m33s.log"
Set parameter MIPGap to value 0.005
Set parameter OptimalityTol to value 0.005
Gurobi Optimizer version 13.0.1 build v13.0.1rc0 (linux64 - "openSUSE Tumbleweed")

CPU model: Intel(R) Core(TM) i7-10610U CPU @ 1.80GHz, instruction set [SSE2|AVX|AVX2]
Thread count: 4 physical cores, 8 logical processors, using up to 8 threads

Non-default parameters:
TimeLimit  3600
SoftMemLimit  12
MIPGap  0.005
OptimalityTol  0.005

Optimize a model with 60721 rows, 1531121 columns and 4635098 nonzeros (Max)
Model fingerprint: 0x9ecd5d79
Model has 1485111 linear objective coefficients
Variable types: 16121 continuous, 1515000 integer (1515000 binary)
Coefficient statistics:
  Matrix range     [3e-05, 1e+05]
  Objective range  [1e+00, 3e+03]
  Bounds range     [1e+00, 1e+05]
  RHS range        [1e+00, 1e+05]

Presolve removed 36714 rows and 1241081 columns
Presolve time: 1.16s
Presolved: 24007 rows, 290040 columns, 921754 nonzeros
Variable types: 6446 continuous, 283594 integer (283594 binary)
Found heuristic solution: objective -4.94437e+08
Performing another presolve...
Presolve added 0 rows and 10 columns
Presolve removed 18 rows and 0 columns
Presolve time: 2.06s
Deterministic concurrent LP optimizer: primal simplex, dual simplex, and barrier
Showing barrier log only...

Root barrier log...

Ordering time: 0.79s

Barrier statistics:
 AA' NZ     : 4.530e+05
 Factor NZ  : 4.055e+06 (roughly 160 MB of memory)
 Factor Ops : 1.381e+09 (less than 1 second per iteration)
 Threads    : 2

                  Objective                Residual
Iter       Primal          Dual         Primal    Dual     Compl     Time
   0  -1.62882078e+12  1.34980946e+09  6.44e+07 1.02e+03  1.65e+07     6s
   1  -1.77564616e+11  3.26557976e+09  7.03e+06 1.29e+03  1.84e+06     7s
   2  -5.00973322e+09  2.32491814e+09  2.04e+05 4.58e+01  5.70e+04     7s
   3  -1.57125833e+08  1.43501055e+09  1.68e+04 3.64e+00  6.15e+03     7s
   4   2.26488734e+08  9.57034307e+08  4.01e+03 1.41e+00  1.92e+03     7s
   5   3.01209027e+08  5.53908512e+08  1.58e+03 4.17e-01  6.43e+02     7s
   6   3.37772906e+08  3.91656277e+08  3.73e+02 6.74e-02  1.37e+02     8s
   7   3.46316578e+08  3.61675868e+08  1.02e+02 1.50e-02  3.81e+01     8s
   8   3.48037228e+08  3.54259504e+08  5.12e+01 4.89e-03  1.63e+01     8s
   9   3.48943599e+08  3.51803922e+08  2.44e+01 1.85e-03  7.28e+00     8s
  10   3.49346237e+08  3.50748843e+08  1.25e+01 6.63e-04  3.39e+00     8s
  11   3.49605137e+08  3.50396329e+08  5.17e+00 3.42e-04  1.66e+00     9s
  12   3.49770293e+08  3.50131917e+08  1.26e+00 1.41e-04  6.51e-01     9s
  13   3.49826535e+08  3.50005852e+08  4.08e-01 6.43e-05  3.08e-01     9s
  14   3.49859133e+08  3.49968870e+08  2.06e-01 4.33e-05  1.87e-01     9s
  15   3.49868503e+08  3.49941250e+08  1.55e-01 2.54e-05  1.23e-01     9s
  16   3.49887763e+08  3.49928591e+08  6.30e-02 1.66e-05  6.91e-02    10s
  17   3.49896956e+08  3.49914526e+08  2.27e-02 7.02e-06  2.97e-02    10s
  18   3.49899485e+08  3.49909752e+08  1.29e-02 3.98e-06  1.74e-02    10s
  19   3.49900346e+08  3.49907211e+08  9.76e-03 2.26e-06  1.16e-02    10s
  20   3.49901657e+08  3.49905799e+08  5.24e-03 1.39e-06  7.00e-03    10s
  21   3.49902423e+08  3.49904738e+08  2.59e-03 7.82e-07  3.91e-03    11s
  22   3.49902909e+08  3.49904168e+08  1.03e-03 4.62e-07  2.13e-03    11s
  23   3.49903032e+08  3.49903863e+08  6.59e-04 2.97e-07  1.40e-03    11s
  24   3.49903119e+08  3.49903685e+08  4.10e-04 2.02e-07  9.56e-04    11s
  25   3.49903160e+08  3.49903520e+08  2.99e-04 1.16e-07  6.09e-04    11s
  26   3.49903212e+08  3.49903415e+08  1.60e-04 5.95e-08  3.43e-04    12s
  27   3.49903244e+08  3.49903363e+08  8.40e-05 3.63e-08  2.01e-04    12s
  28   3.49903255e+08  3.49903320e+08  5.51e-05 1.64e-08  1.09e-04    12s
  29   3.49903263e+08  3.49903296e+08  3.89e-05 5.87e-09  5.66e-05    12s
  30   3.49903270e+08  3.49903290e+08  2.11e-05 3.44e-09  3.30e-05    13s
  31   3.49903280e+08  3.49903284e+08  1.06e-06 8.48e-10  6.93e-06    13s
  32   3.49903280e+08  3.49903281e+08  4.96e-07 1.27e-10  1.68e-06    13s
  33   3.49903280e+08  3.49903281e+08  1.06e-07 1.09e-10  8.69e-07    13s

Barrier solved model in 33 iterations and 13.16 seconds (9.48 work units)
Optimal objective 3.49903280e+08


Root crossover log...

    7151 DPushes remaining with DInf 0.0000000e+00                13s
       0 DPushes remaining with DInf 0.0000000e+00                14s

    5211 PPushes remaining with PInf 9.3602611e-02                14s
       0 PPushes remaining with PInf 0.0000000e+00                14s

  Push phase complete: Pinf 0.0000000e+00, Dinf 2.2406582e+04     14s


Root simplex log...

Iteration    Objective       Primal Inf.    Dual Inf.      Time
   12178    3.4990328e+08   0.000000e+00   2.240639e+04     14s
   12872    3.4990328e+08   0.000000e+00   0.000000e+00     14s
Crossover time: 0.96 seconds (0.46 work units)
Concurrent spin time: 0.00s

Solved with barrier

Root relaxation: objective 3.499033e+08, 12872 iterations, 9.61 seconds (5.63 work units)
Total elapsed time = 14.15s (DegenMoves)

    Nodes    |    Current Node    |     Objective Bounds      |     Work
 Expl Unexpl |  Obj  Depth IntInf | Incumbent    BestBd   Gap | It/Node Time

     0     0 3.4990e+08    0 7055 -4.944e+08 3.4990e+08   171%     -   15s
H    0     0                    -2.16314e+07 3.4990e+08  1718%     -   16s
H    0     0                    4.507513e+07 3.4990e+08   676%     -   17s
H    0     0                    4.568124e+07 3.4990e+08   666%     -   19s
H    0     0                    1.421652e+08 3.4990e+08   146%     -   24s
H    0     0                    2.492328e+08 3.4990e+08  40.4%     -   26s
H    0     0                    2.511279e+08 3.4990e+08  39.3%     -   29s
     0     0 3.4990e+08    0 6935 2.5113e+08 3.4990e+08  39.3%     -  482s
H    0     0                    2.511281e+08 3.4990e+08  39.3%     -  501s
H    0     0                    2.548600e+08 3.4990e+08  37.3%     -  597s
H    0     0                    2.558757e+08 3.4990e+08  36.7%     -  646s
H    0     0                    2.663510e+08 3.4990e+08  31.4%     -  828s
H    0     0                    2.669469e+08 3.4990e+08  31.1%     -  856s
H    0     0                    2.672840e+08 3.4990e+08  30.9%     -  985s
     0     0 3.4990e+08    0 7084 2.6728e+08 3.4990e+08  30.9%     - 2178s
H    0     0                    2.676467e+08 3.4990e+08  30.7%     - 2181s
H    0     0                    2.722958e+08 3.4990e+08  28.5%     - 2196s
H    0     0                    2.748949e+08 3.4990e+08  27.3%     - 2214s
H    0     0                    2.803157e+08 3.4990e+08  24.8%     - 2330s
H    0     0                    2.817724e+08 3.4990e+08  24.2%     - 2517s
H    0     0                    2.817724e+08 3.4990e+08  24.2%     - 2693s
H    0     0                    2.819833e+08 3.4990e+08  24.1%     - 2767s
     0     0 3.4990e+08    0 7072 2.8198e+08 3.4990e+08  24.1%     - 3072s
     0     0 3.4990e+08    0 7063 2.8198e+08 3.4990e+08  24.1%     - 3148s
     0     0 3.4990e+08    0 7148 2.8198e+08 3.4990e+08  24.1%     - 3335s
     0     0 3.4990e+08    0 7125 2.8198e+08 3.4990e+08  24.1%     - 3342s
     0     0 3.4990e+08    0 7185 2.8198e+08 3.4990e+08  24.1%     - 3434s
     0     0 3.4990e+08    0 7180 2.8198e+08 3.4990e+08  24.1%     - 3509s
     0     0          -    0      2.8198e+08 3.4990e+08  24.1%     - 3600s

Cutting planes:
  MIR: 54
  Flow cover: 142
  RLT: 2309
  Relax-and-lift: 92

Explored 1 nodes (872202 simplex iterations) in 3600.09 seconds (4619.79 work units)
Thread count was 8 (of 8 available processors)

Solution count 10: 2.81983e+08 2.81772e+08 2.81772e+08 ... 2.66351e+08

Time limit reached
Best objective 2.819833325092e+08, best bound 3.499007780254e+08, gap 24.0856%
